Input: forum-14.prec25.dzn
============================================================
Total Runtime: 4.3083 seconds
Input parsing: 0.0010 seconds
Constraint building: 1.0075 seconds
MaxSAT solving: 2.6284 seconds
============================================================

Total variables: 321490
Total clauses: 703924
MaxSAT found with cost: 0
NO SOLUTION FOUND
